c input_v4/binary/cnf_ALO_v4/10x10_120.cnf
pc 1320
cnfc 8832
s SATISFIABLE
c process-time: 0.01 seconds
-----
c input_v4/binary/cnf_ALO_v4/10x10_121.cnf
pc 1320
cnfc 8648
s SATISFIABLE
c process-time: 0.00 seconds
-----
c input_v4/binary/cnf_ALO_v4/10x10_122.cnf
pc 1320
cnfc 8703
s SATISFIABLE
c process-time: 0.00 seconds
-----
c input_v4/binary/cnf_ALO_v4/10x10_123.cnf
pc 1412
cnfc 9466
s SATISFIABLE
c process-time: 0.00 seconds
-----
c input_v4/binary/cnf_ALO_v4/10x10_124.cnf
pc 1320
cnfc 8666
s SATISFIABLE
c process-time: 0.00 seconds
-----
c input_v4/binary/cnf_ALO_v4/10x10_130.cnf
pc 1320
cnfc 8537
s SATISFIABLE
c process-time: 0.00 seconds
-----
c input_v4/binary/cnf_ALO_v4/10x10_131.cnf
pc 1052
cnfc 6659
s SATISFIABLE
c process-time: 0.00 seconds
-----
c input_v4/binary/cnf_ALO_v4/10x10_132.cnf
pc 1228
cnfc 8105
s SATISFIABLE
c process-time: 0.00 seconds
-----
c input_v4/binary/cnf_ALO_v4/10x10_133.cnf
pc 1412
cnfc 9589
s SATISFIABLE
c process-time: 0.00 seconds
-----
c input_v4/binary/cnf_ALO_v4/10x10_134.cnf
pc 1052
cnfc 6688
s SATISFIABLE
c process-time: 0.00 seconds
-----
c input_v4/binary/cnf_ALO_v4/10x10_135.cnf
pc 1228
cnfc 8072
s SATISFIABLE
c process-time: 0.00 seconds
-----
c input_v4/binary/cnf_ALO_v4/10x10_136.cnf
pc 1320
cnfc 8740
s SATISFIABLE
c process-time: 0.00 seconds
-----
c input_v4/binary/cnf_ALO_v4/10x10_137.cnf
pc 1320
cnfc 8740
s SATISFIABLE
c process-time: 0.00 seconds
-----
c input_v4/binary/cnf_ALO_v4/10x10_138.cnf
pc 1412
cnfc 9507
s SATISFIABLE
c process-time: 0.00 seconds
-----
c input_v4/binary/cnf_ALO_v4/10x10_139.cnf
pc 1228
cnfc 7990
s SATISFIABLE
c process-time: 0.00 seconds
-----
c input_v4/binary/cnf_ALO_v4/10x10_140.cnf
pc 1412
cnfc 9384
s SATISFIABLE
c process-time: 0.00 seconds
-----
c input_v4/binary/cnf_ALO_v4/10x10_141.cnf
pc 1320
cnfc 8813
s SATISFIABLE
c process-time: 0.00 seconds
-----
c input_v4/binary/cnf_ALO_v4/10x10_142.cnf
pc 1320
cnfc 8758
s SATISFIABLE
c process-time: 0.00 seconds
-----
c input_v4/binary/cnf_ALO_v4/10x10_143.cnf
pc 1228
cnfc 7973
s SATISFIABLE
c process-time: 0.00 seconds
-----
c input_v4/binary/cnf_ALO_v4/10x10_144.cnf
pc 1412
cnfc 9221
s SATISFIABLE
c process-time: 0.00 seconds
-----
c input_v4/binary/cnf_ALO_v4/10x10_145.cnf
pc 1412
cnfc 9343
s SATISFIABLE
c process-time: 0.00 seconds
-----
c input_v4/binary/cnf_ALO_v4/10x15_387.cnf
pc 2020
cnfc 14187
s SATISFIABLE
c process-time: 0.01 seconds
-----
c input_v4/binary/cnf_ALO_v4/10x15_388.cnf
pc 1878
cnfc 13245
s SATISFIABLE
c process-time: 0.02 seconds
-----
c input_v4/binary/cnf_ALO_v4/10x15_389.cnf
pc 1602
cnfc 10731
s SATISFIABLE
c process-time: 0.01 seconds
-----
c input_v4/binary/cnf_ALO_v4/10x15_390.cnf
pc 2020
cnfc 14372
s SATISFIABLE
c process-time: 0.01 seconds
-----
c input_v4/binary/cnf_ALO_v4/10x15_396.cnf
pc 1602
cnfc 10746
s SATISFIABLE
c process-time: 0.00 seconds
-----
c input_v4/binary/cnf_ALO_v4/10x15_397.cnf
pc 1878
cnfc 13063
s SATISFIABLE
c process-time: 0.01 seconds
-----
c input_v4/binary/cnf_ALO_v4/10x15_398.cnf
pc 1602
cnfc 10717
s SATISFIABLE
c process-time: 0.01 seconds
-----
c input_v4/binary/cnf_ALO_v4/10x15_399.cnf
pc 1878
cnfc 13079
s SATISFIABLE
c process-time: 0.00 seconds
-----
c input_v4/binary/cnf_ALO_v4/10x15_400.cnf
pc 1602
cnfc 10746
s SATISFIABLE
c process-time: 0.01 seconds
-----
c input_v4/binary/cnf_ALO_v4/10x18_186.cnf
pc 2956
cnfc 21988
s SATISFIABLE
c process-time: 0.08 seconds
-----
c input_v4/binary/cnf_ALO_v4/10x18_187.cnf
pc 2440
cnfc 17780
s SATISFIABLE
c process-time: 0.01 seconds
-----
c input_v4/binary/cnf_ALO_v4/10x18_198.cnf
pc 3472
cnfc 26209
s SATISFIABLE
c process-time: 0.01 seconds
-----
c input_v4/binary/cnf_ALO_v4/10x18_199.cnf
pc 2956
cnfc 22134
s SATISFIABLE
c process-time: 0.01 seconds
-----
c input_v4/binary/cnf_ALO_v4/10x18_200.cnf
pc 2784
cnfc 20618
s SATISFIABLE
c process-time: 0.09 seconds
-----
c input_v4/binary/cnf_ALO_v4/10x18_208.cnf
pc 3128
cnfc 23834
s SATISFIABLE
c process-time: 0.01 seconds
-----
c input_v4/binary/cnf_ALO_v4/10x18_209.cnf
pc 2784
cnfc 20932
s SATISFIABLE
c process-time: 0.01 seconds
-----
c input_v4/binary/cnf_ALO_v4/10x18_414.cnf
pc 3790
cnfc 29686
s SATISFIABLE
c process-time: 0.01 seconds
-----
c input_v4/binary/cnf_ALO_v4/10x18_415.cnf
pc 3472
cnfc 25966
s SATISFIABLE
c process-time: 0.01 seconds
-----
c input_v4/binary/cnf_ALO_v4/10x18_416.cnf
pc 2440
cnfc 17595
s SATISFIABLE
c process-time: 0.01 seconds
-----
c input_v4/binary/cnf_ALO_v4/10x18_417.cnf
pc 2784
cnfc 20574
s SATISFIABLE
c process-time: 0.05 seconds
-----
c input_v4/binary/cnf_ALO_v4/11x11_120.cnf
pc 1840
cnfc 12729
s SATISFIABLE
c process-time: 0.00 seconds
-----
c input_v4/binary/cnf_ALO_v4/11x11_121.cnf
pc 1501
cnfc 10118
s SATISFIABLE
c process-time: 0.00 seconds
-----
c input_v4/binary/cnf_ALO_v4/11x11_122.cnf
pc 1283
cnfc 8414
s SATISFIABLE
c process-time: 0.00 seconds
-----
c input_v4/binary/cnf_ALO_v4/11x11_123.cnf
pc 1840
cnfc 12730
s SATISFIABLE
c process-time: 0.00 seconds
-----
c input_v4/binary/cnf_ALO_v4/11x11_124.cnf
pc 1840
cnfc 12685
s SATISFIABLE
c process-time: 0.00 seconds
-----
c input_v4/binary/cnf_ALO_v4/11x11_130.cnf
pc 1614
cnfc 11047
s SATISFIABLE
c process-time: 0.00 seconds
-----
c input_v4/binary/cnf_ALO_v4/11x11_131.cnf
pc 1840
cnfc 12640
s SATISFIABLE
c process-time: 0.00 seconds
-----
c input_v4/binary/cnf_ALO_v4/11x11_132.cnf
pc 1727
cnfc 11981
s SATISFIABLE
c process-time: 0.01 seconds
-----
c input_v4/binary/cnf_ALO_v4/11x11_133.cnf
pc 1614
cnfc 11066
s SATISFIABLE
c process-time: 0.00 seconds
-----
c input_v4/binary/cnf_ALO_v4/11x11_134.cnf
pc 1840
cnfc 12730
s SATISFIABLE
c process-time: 0.01 seconds
-----
c input_v4/binary/cnf_ALO_v4/11x11_135.cnf
pc 1840
cnfc 12595
s SATISFIABLE
c process-time: 0.00 seconds
-----
c input_v4/binary/cnf_ALO_v4/11x11_136.cnf
pc 1283
cnfc 8342
s SATISFIABLE
c process-time: 0.01 seconds
-----
c input_v4/binary/cnf_ALO_v4/11x11_137.cnf
pc 1840
cnfc 12931
s SATISFIABLE
c process-time: 0.00 seconds
-----
c input_v4/binary/cnf_ALO_v4/11x11_138.cnf
pc 1840
cnfc 12730
s SATISFIABLE
c process-time: 0.00 seconds
-----
c input_v4/binary/cnf_ALO_v4/11x11_139.cnf
pc 1501
cnfc 10118
s SATISFIABLE
c process-time: 0.00 seconds
-----
c input_v4/binary/cnf_ALO_v4/11x11_140.cnf
pc 1840
cnfc 12909
s SATISFIABLE
c process-time: 0.00 seconds
-----
c input_v4/binary/cnf_ALO_v4/11x11_141.cnf
pc 1501
cnfc 10134
s SATISFIABLE
c process-time: 0.00 seconds
-----
c input_v4/binary/cnf_ALO_v4/11x11_142.cnf
pc 1614
cnfc 10992
s SATISFIABLE
c process-time: 0.01 seconds
-----
c input_v4/binary/cnf_ALO_v4/11x11_143.cnf
pc 1501
cnfc 10233
s SATISFIABLE
c process-time: 0.01 seconds
-----
c input_v4/binary/cnf_ALO_v4/11x11_144.cnf
pc 1614
cnfc 10992
s SATISFIABLE
c process-time: 0.01 seconds
-----
c input_v4/binary/cnf_ALO_v4/11x11_145.cnf
pc 1614
cnfc 11084
s SATISFIABLE
c process-time: 0.00 seconds
-----
c input_v4/binary/cnf_ALO_v4/12x12_120.cnf
pc 2480
cnfc 17960
s SATISFIABLE
c process-time: 0.01 seconds
-----
c input_v4/binary/cnf_ALO_v4/12x12_121.cnf
pc 1936
cnfc 13615
s SATISFIABLE
c process-time: 0.01 seconds
-----
c input_v4/binary/cnf_ALO_v4/12x12_122.cnf
pc 2344
cnfc 17021
s SATISFIABLE
c process-time: 0.01 seconds
-----
c input_v4/binary/cnf_ALO_v4/12x12_123.cnf
pc 2072
cnfc 14802
s SATISFIABLE
c process-time: 0.00 seconds
-----
c input_v4/binary/cnf_ALO_v4/12x12_124.cnf
pc 2344
cnfc 16948
s SATISFIABLE
c process-time: 0.01 seconds
-----
c input_v4/binary/cnf_ALO_v4/12x12_130.cnf
pc 2344
cnfc 16947
s SATISFIABLE
c process-time: 0.01 seconds
-----
c input_v4/binary/cnf_ALO_v4/12x12_131.cnf
pc 1936
cnfc 13707
s SATISFIABLE
c process-time: 0.01 seconds
-----
c input_v4/binary/cnf_ALO_v4/12x12_132.cnf
pc 2344
cnfc 16776
s SATISFIABLE
c process-time: 0.01 seconds
-----
c input_v4/binary/cnf_ALO_v4/12x12_133.cnf
pc 2344
cnfc 16654
s SATISFIABLE
c process-time: 0.00 seconds
-----
c input_v4/binary/cnf_ALO_v4/12x12_134.cnf
pc 2208
cnfc 16097
s SATISFIABLE
c process-time: 0.02 seconds
-----
c input_v4/binary/cnf_ALO_v4/12x12_135.cnf
pc 2072
cnfc 14741
s SATISFIABLE
c process-time: 0.01 seconds
-----
c input_v4/binary/cnf_ALO_v4/12x12_136.cnf
pc 2208
cnfc 15872
s SATISFIABLE
c process-time: 0.01 seconds
-----
c input_v4/binary/cnf_ALO_v4/12x12_137.cnf
pc 2072
cnfc 14823
s SATISFIABLE
c process-time: 0.01 seconds
-----
c input_v4/binary/cnf_ALO_v4/12x12_138.cnf
pc 2072
cnfc 14823
s SATISFIABLE
c process-time: 0.01 seconds
-----
c input_v4/binary/cnf_ALO_v4/12x12_139.cnf
pc 2208
cnfc 15850
s SATISFIABLE
c process-time: 0.00 seconds
-----
c input_v4/binary/cnf_ALO_v4/12x12_140.cnf
pc 2072
cnfc 14680
s SATISFIABLE
c process-time: 0.00 seconds
-----
c input_v4/binary/cnf_ALO_v4/12x12_141.cnf
pc 2072
cnfc 14884
s SATISFIABLE
c process-time: 0.01 seconds
-----
c input_v4/binary/cnf_ALO_v4/12x12_142.cnf
pc 1800
cnfc 12514
s SATISFIABLE
c process-time: 0.00 seconds
-----
c input_v4/binary/cnf_ALO_v4/12x12_143.cnf
pc 2480
cnfc 17827
s SATISFIABLE
c process-time: 0.01 seconds
-----
c input_v4/binary/cnf_ALO_v4/12x12_144.cnf
pc 1936
cnfc 13707
s SATISFIABLE
c process-time: 0.00 seconds
-----
c input_v4/binary/cnf_ALO_v4/12x12_145.cnf
pc 2072
cnfc 14762
s SATISFIABLE
c process-time: 0.00 seconds
-----
c input_v4/binary/cnf_ALO_v4/12x15_39.cnf
pc 3300
cnfc 24889
s SATISFIABLE
c process-time: 0.01 seconds
-----
c input_v4/binary/cnf_ALO_v4/12x15_43.cnf
pc 2956
cnfc 22165
s SATISFIABLE
c process-time: 0.02 seconds
-----
c input_v4/binary/cnf_ALO_v4/12x15_45.cnf
pc 2440
cnfc 17675
s SATISFIABLE
c process-time: 0.01 seconds
-----
c input_v4/binary/cnf_ALO_v4/12x15_46.cnf
pc 2612
cnfc 19224
s SATISFIABLE
c process-time: 0.01 seconds
-----
c input_v4/binary/cnf_ALO_v4/12x23_210.cnf
pc 7764
cnfc 66649
s SATISFIABLE
c process-time: 0.04 seconds
-----
c input_v4/binary/cnf_ALO_v4/13x13_120.cnf
pc 2769
cnfc 20738
s SATISFIABLE
c process-time: 0.01 seconds
-----
c input_v4/binary/cnf_ALO_v4/13x13_121.cnf
pc 2608
cnfc 19193
s SATISFIABLE
c process-time: 0.01 seconds
-----
c input_v4/binary/cnf_ALO_v4/13x13_122.cnf
pc 2286
cnfc 16517
s SATISFIABLE
c process-time: 0.01 seconds
-----
c input_v4/binary/cnf_ALO_v4/13x13_123.cnf
pc 2930
cnfc 21855
s SATISFIABLE
c process-time: 0.01 seconds
-----
c input_v4/binary/cnf_ALO_v4/13x13_124.cnf
pc 2769
cnfc 20591
s SATISFIABLE
c process-time: 0.01 seconds
-----
c input_v4/binary/cnf_ALO_v4/13x13_130.cnf
pc 2769
cnfc 20664
s SATISFIABLE
c process-time: 0.02 seconds
-----
c input_v4/binary/cnf_ALO_v4/13x13_131.cnf
pc 2608
cnfc 19373
s SATISFIABLE
c process-time: 0.01 seconds
-----
c input_v4/binary/cnf_ALO_v4/13x13_132.cnf
pc 2930
cnfc 21829
s SATISFIABLE
c process-time: 0.02 seconds
-----
c input_v4/binary/cnf_ALO_v4/13x13_133.cnf
pc 2608
cnfc 19283
s SATISFIABLE
c process-time: 0.01 seconds
-----
c input_v4/binary/cnf_ALO_v4/13x13_134.cnf
pc 2447
cnfc 17870
s SATISFIABLE
c process-time: 0.03 seconds
-----
c input_v4/binary/cnf_ALO_v4/13x13_135.cnf
pc 2608
cnfc 19171
s SATISFIABLE
c process-time: 0.01 seconds
-----
c input_v4/binary/cnf_ALO_v4/13x13_136.cnf
pc 2769
cnfc 20518
s SATISFIABLE
c process-time: 0.01 seconds
-----
c input_v4/binary/cnf_ALO_v4/13x13_137.cnf
pc 2769
cnfc 20518
s SATISFIABLE
c process-time: 0.01 seconds
-----
c input_v4/binary/cnf_ALO_v4/13x13_138.cnf
pc 2930
cnfc 21776
s SATISFIABLE
c process-time: 0.01 seconds
-----
c input_v4/binary/cnf_ALO_v4/13x13_139.cnf
pc 3091
cnfc 23075
s SATISFIABLE
c process-time: 0.01 seconds
-----
c input_v4/binary/cnf_ALO_v4/13x13_140.cnf
pc 2608
cnfc 19620
s SATISFIABLE
c process-time: 0.01 seconds
-----
c input_v4/binary/cnf_ALO_v4/13x13_141.cnf
pc 2447
cnfc 18075
s SATISFIABLE
c process-time: 0.01 seconds
-----
c input_v4/binary/cnf_ALO_v4/13x13_142.cnf
pc 2447
cnfc 17788
s SATISFIABLE
c process-time: 0.05 seconds
-----
c input_v4/binary/cnf_ALO_v4/13x13_143.cnf
pc 2447
cnfc 17870
s SATISFIABLE
c process-time: 0.02 seconds
-----
c input_v4/binary/cnf_ALO_v4/13x13_144.cnf
pc 3091
cnfc 23246
s SATISFIABLE
c process-time: 0.01 seconds
-----
c input_v4/binary/cnf_ALO_v4/13x13_145.cnf
pc 2930
cnfc 21882
s SATISFIABLE
c process-time: 0.01 seconds
-----
c input_v4/binary/cnf_ALO_v4/14x14_120.cnf
pc 3416
cnfc 26168
s SATISFIABLE
c process-time: 0.07 seconds
-----
c input_v4/binary/cnf_ALO_v4/14x14_121.cnf
pc 3604
cnfc 27893
s SATISFIABLE
c process-time: 0.02 seconds
-----
c input_v4/binary/cnf_ALO_v4/14x14_122.cnf
pc 3604
cnfc 27864
s SATISFIABLE
c process-time: 0.01 seconds
-----
c input_v4/binary/cnf_ALO_v4/14x14_123.cnf
pc 3228
cnfc 24549
s SATISFIABLE
c process-time: 0.01 seconds
-----
c input_v4/binary/cnf_ALO_v4/14x14_124.cnf
pc 3416
cnfc 26141
s SATISFIABLE
c process-time: 0.01 seconds
-----
c input_v4/binary/cnf_ALO_v4/14x14_130.cnf
pc 3228
cnfc 24817
s SATISFIABLE
c process-time: 0.01 seconds
-----
c input_v4/binary/cnf_ALO_v4/14x14_131.cnf
pc 3604
cnfc 27893
s SATISFIABLE
c process-time: 0.01 seconds
-----
c input_v4/binary/cnf_ALO_v4/14x14_132.cnf
pc 3792
cnfc 29450
s SATISFIABLE
c process-time: 0.01 seconds
-----
c input_v4/binary/cnf_ALO_v4/14x14_133.cnf
pc 3792
cnfc 29145
s SATISFIABLE
c process-time: 0.01 seconds
-----
c input_v4/binary/cnf_ALO_v4/14x14_134.cnf
pc 3604
cnfc 27807
s SATISFIABLE
c process-time: 0.02 seconds
-----
c input_v4/binary/cnf_ALO_v4/14x14_135.cnf
pc 3040
cnfc 23163
s SATISFIABLE
c process-time: 0.01 seconds
-----
c input_v4/binary/cnf_ALO_v4/14x14_136.cnf
pc 3040
cnfc 23118
s SATISFIABLE
c process-time: 0.04 seconds
-----
c input_v4/binary/cnf_ALO_v4/14x14_137.cnf
pc 3604
cnfc 27722
s SATISFIABLE
c process-time: 0.04 seconds
-----
c input_v4/binary/cnf_ALO_v4/14x14_138.cnf
pc 3604
cnfc 28092
s SATISFIABLE
c process-time: 0.03 seconds
-----
c input_v4/binary/cnf_ALO_v4/14x14_139.cnf
pc 3416
cnfc 26432
s SATISFIABLE
c process-time: 0.01 seconds
-----
c input_v4/binary/cnf_ALO_v4/14x14_140.cnf
pc 3792
cnfc 29419
s SATISFIABLE
c process-time: 0.01 seconds
-----
c input_v4/binary/cnf_ALO_v4/14x14_141.cnf
pc 3792
cnfc 29115
s SATISFIABLE
c process-time: 0.01 seconds
-----
c input_v4/binary/cnf_ALO_v4/14x14_142.cnf
pc 3604
cnfc 27950
s SATISFIABLE
c process-time: 0.01 seconds
-----
c input_v4/binary/cnf_ALO_v4/14x14_143.cnf
pc 3604
cnfc 27637
s SATISFIABLE
c process-time: 0.03 seconds
-----
c input_v4/binary/cnf_ALO_v4/14x14_144.cnf
pc 3040
cnfc 23118
s SATISFIABLE
c process-time: 0.01 seconds
-----
c input_v4/binary/cnf_ALO_v4/14x14_145.cnf
pc 3792
cnfc 29388
s SATISFIABLE
c process-time: 0.03 seconds
-----
c input_v4/binary/cnf_ALO_v4/14x24_105.cnf
pc 8852
cnfc 78780
s SATISFIABLE
c process-time: 0.22 seconds
-----
c input_v4/binary/cnf_ALO_v4/14x24_110.cnf
pc 8200
cnfc 72570
s SATISFIABLE
c process-time: 1s 0.64 seconds
-----
c input_v4/binary/cnf_ALO_v4/14x24_113.cnf
pc 9504
cnfc 84853
s SATISFIABLE
c process-time: 0.38 seconds
-----
c input_v4/binary/cnf_ALO_v4/14x24_117.cnf
pc 7874
cnfc 69487
s SATISFIABLE
c process-time: 0.50 seconds
-----
c input_v4/binary/cnf_ALO_v4/14x24_129.cnf
pc 8200
cnfc 72685
s SATISFIABLE
c process-time: 1s 0.97 seconds
-----
c input_v4/binary/cnf_ALO_v4/14x24_139.cnf
pc 8200
cnfc 72801
s SATISFIABLE
c process-time: 1s 1.17 seconds
-----
c input_v4/binary/cnf_ALO_v4/14x24_147.cnf
pc 8526
cnfc 75516
s SATISFIABLE
c process-time: 1s 0.96 seconds
-----
c input_v4/binary/cnf_ALO_v4/14x24_148.cnf
pc 6264
cnfc 51919
s SATISFIABLE
c process-time: 0.29 seconds
-----
c input_v4/binary/cnf_ALO_v4/14x24_157.cnf
pc 6592
cnfc 55098
s SATISFIABLE
c process-time: 0.09 seconds
-----
c input_v4/binary/cnf_ALO_v4/14x24_158.cnf
pc 5608
cnfc 45342
s SATISFIABLE
c process-time: 1s 0.71 seconds
-----
c input_v4/binary/cnf_ALO_v4/14x24_169.cnf
pc 6264
cnfc 51777
s SATISFIABLE
c process-time: 1s 1.22 seconds
-----
c input_v4/binary/cnf_ALO_v4/14x24_179.cnf
pc 5608
cnfc 45464
s SATISFIABLE
c process-time: 2s 2.27 seconds
-----
c input_v4/binary/cnf_ALO_v4/14x24_188.cnf
pc 8852
cnfc 79162
s SATISFIABLE
c process-time: 0.18 seconds
-----
c input_v4/binary/cnf_ALO_v4/14x24_189.cnf
pc 10156
cnfc 90296
s SATISFIABLE
c process-time: 0.20 seconds
-----
c input_v4/binary/cnf_ALO_v4/14x24_190.cnf
pc 5608
cnfc 45391
s SATISFIABLE
c process-time: 50s 50.27 seconds
-----
c input_v4/binary/cnf_ALO_v4/14x24_199.cnf
pc 5280
cnfc 42189
s SATISFIABLE
c process-time: 2s 1.51 seconds
-----
c input_v4/binary/cnf_ALO_v4/14x24_200.cnf
pc 5936
cnfc 48602
s SATISFIABLE
c process-time: 3s 2.92 seconds
-----
c input_v4/binary/cnf_ALO_v4/14x24_208.cnf
pc 8200
cnfc 72647
s SATISFIABLE
c process-time: 0.19 seconds
-----
c input_v4/binary/cnf_ALO_v4/14x24_209.cnf
pc 5936
cnfc 48655
s SATISFIABLE
c process-time: 1s 0.54 seconds
-----
c input_v4/binary/cnf_ALO_v4/14x24_218.cnf
pc 8200
cnfc 72916
s SATISFIABLE
c process-time: 0.35 seconds
-----
c input_v4/binary/cnf_ALO_v4/14x24_219.cnf
pc 6264
cnfc 51748
s SATISFIABLE
c process-time: 1s 1.16 seconds
-----
c input_v4/binary/cnf_ALO_v4/14x24_418.cnf
pc 7548
cnfc 66657
s SATISFIABLE
c process-time: 0.15 seconds
-----
c input_v4/binary/cnf_ALO_v4/14x24_419.cnf
pc 9504
cnfc 84528
s SATISFIABLE
c process-time: 0.25 seconds
-----
c input_v4/binary/cnf_ALO_v4/14x24_420.cnf
pc 5936
cnfc 48628
s SATISFIABLE
c process-time: 7s 6.86 seconds
-----
c input_v4/binary/cnf_ALO_v4/15x15_120.cnf
pc 4372
cnfc 34852
s SATISFIABLE
c process-time: 0.08 seconds
-----
c input_v4/binary/cnf_ALO_v4/15x15_121.cnf
pc 3721
cnfc 28967
s SATISFIABLE
c process-time: 0.01 seconds
-----
c input_v4/binary/cnf_ALO_v4/15x15_122.cnf
pc 4155
cnfc 32760
s SATISFIABLE
c process-time: 0.01 seconds
-----
c input_v4/binary/cnf_ALO_v4/15x15_123.cnf
pc 4372
cnfc 34608
s SATISFIABLE
c process-time: 0.04 seconds
-----
c input_v4/binary/cnf_ALO_v4/15x15_124.cnf
pc 4372
cnfc 34578
s SATISFIABLE
c process-time: 0.03 seconds
-----
c input_v4/binary/cnf_ALO_v4/15x15_130.cnf
pc 4155
cnfc 32788
s SATISFIABLE
c process-time: 0.01 seconds
-----
c input_v4/binary/cnf_ALO_v4/15x15_131.cnf
pc 4372
cnfc 34486
s SATISFIABLE
c process-time: 0.03 seconds
-----
c input_v4/binary/cnf_ALO_v4/15x15_132.cnf
pc 4372
cnfc 34608
s SATISFIABLE
c process-time: 0.03 seconds
-----
c input_v4/binary/cnf_ALO_v4/15x15_133.cnf
pc 4372
cnfc 34456
s SATISFIABLE
c process-time: 0.01 seconds
-----
c input_v4/binary/cnf_ALO_v4/15x15_134.cnf
pc 3938
cnfc 30898
s SATISFIABLE
c process-time: 0.17 seconds
-----
c input_v4/binary/cnf_ALO_v4/15x15_135.cnf
pc 4372
cnfc 34608
s SATISFIABLE
c process-time: 0.01 seconds
-----
c input_v4/binary/cnf_ALO_v4/15x15_136.cnf
pc 4372
cnfc 34760
s SATISFIABLE
c process-time: 0.02 seconds
-----
c input_v4/binary/cnf_ALO_v4/15x15_137.cnf
pc 4372
cnfc 34821
s SATISFIABLE
c process-time: 0.02 seconds
-----
c input_v4/binary/cnf_ALO_v4/15x15_138.cnf
pc 4372
cnfc 34608
s SATISFIABLE
c process-time: 0.02 seconds
-----
c input_v4/binary/cnf_ALO_v4/15x15_139.cnf
pc 4155
cnfc 32703
s SATISFIABLE
c process-time: 0.07 seconds
-----
c input_v4/binary/cnf_ALO_v4/15x15_140.cnf
pc 4372
cnfc 34669
s SATISFIABLE
c process-time: 0.01 seconds
-----
c input_v4/binary/cnf_ALO_v4/15x15_141.cnf
pc 4372
cnfc 34669
s SATISFIABLE
c process-time: 0.01 seconds
-----
c input_v4/binary/cnf_ALO_v4/15x15_142.cnf
pc 4372
cnfc 34517
s SATISFIABLE
c process-time: 0.01 seconds
-----
c input_v4/binary/cnf_ALO_v4/15x15_143.cnf
pc 4372
cnfc 34943
s SATISFIABLE
c process-time: 0.05 seconds
-----
c input_v4/binary/cnf_ALO_v4/15x15_144.cnf
pc 4372
cnfc 34761
s SATISFIABLE
c process-time: 0.02 seconds
-----
c input_v4/binary/cnf_ALO_v4/15x15_145.cnf
pc 4155
cnfc 32930
s SATISFIABLE
c process-time: 0.01 seconds
-----
c input_v4/binary/cnf_ALO_v4/15x20_307.cnf
pc 4412
cnfc 34480
s SATISFIABLE
c process-time: 6s 6.10 seconds
-----
c input_v4/binary/cnf_ALO_v4/15x20_308.cnf
pc 4704
cnfc 37347
s SATISFIABLE
c process-time: 0.46 seconds
-----
c input_v4/binary/cnf_ALO_v4/15x20_309.cnf
pc 4412
cnfc 34644
s SATISFIABLE
c process-time: 1s 1.31 seconds
-----
c input_v4/binary/cnf_ALO_v4/15x20_310.cnf
pc 5580
cnfc 45621
s SATISFIABLE
c process-time: 1s 0.73 seconds
-----
c input_v4/binary/cnf_ALO_v4/15x20_317.cnf
pc 5580
cnfc 45450
s SATISFIABLE
c process-time: 0.03 seconds
-----
c input_v4/binary/cnf_ALO_v4/15x20_318.cnf
pc 5580
cnfc 45507
s SATISFIABLE
c process-time: 0.04 seconds
-----
c input_v4/binary/cnf_ALO_v4/15x20_319.cnf
pc 5288
cnfc 42748
s SATISFIABLE
c process-time: 3s 3.16 seconds
-----
c input_v4/binary/cnf_ALO_v4/15x20_320.cnf
pc 5288
cnfc 42827
s SATISFIABLE
c process-time: 0.31 seconds
-----
c input_v4/binary/cnf_ALO_v4/17x17_100.cnf
pc 4528
cnfc 35848
s SATISFIABLE
c process-time: 1s 0.72 seconds
-----
c input_v4/binary/cnf_ALO_v4/17x17_104.cnf
pc 7025
cnfc 61328
s SATISFIABLE
c process-time: 0.21 seconds
-----
c input_v4/binary/cnf_ALO_v4/17x17_109.cnf
pc 6746
cnfc 58475
s SATISFIABLE
c process-time: 0.16 seconds
-----
c input_v4/binary/cnf_ALO_v4/17x17_112.cnf
pc 7304
cnfc 63553
s SATISFIABLE
c process-time: 0.03 seconds
-----
c input_v4/binary/cnf_ALO_v4/17x17_116.cnf
pc 6467
cnfc 55775
s SATISFIABLE
c process-time: 0.03 seconds
-----
c input_v4/binary/cnf_ALO_v4/17x17_120.cnf
pc 4809
cnfc 38428
s SATISFIABLE
c process-time: 1s 0.99 seconds
-----
c input_v4/binary/cnf_ALO_v4/17x17_128.cnf
pc 4809
cnfc 38722
s SATISFIABLE
c process-time: 0.16 seconds
-----
c input_v4/binary/cnf_ALO_v4/17x17_136.cnf
pc 6746
cnfc 58766
s SATISFIABLE
c process-time: 0.06 seconds
-----
c input_v4/binary/cnf_ALO_v4/17x17_138.cnf
pc 4528
cnfc 35758
s SATISFIABLE
c process-time: 1s 1.23 seconds
-----
c input_v4/binary/cnf_ALO_v4/17x17_165.cnf
pc 4809
cnfc 38428
s SATISFIABLE
c process-time: 3s 3.10 seconds
-----
c input_v4/binary/cnf_ALO_v4/17x17_166.cnf
pc 4528
cnfc 35758
s SATISFIABLE
c process-time: 4s 3.93 seconds
-----
c input_v4/binary/cnf_ALO_v4/17x17_167.cnf
pc 8978
cnfc 78739
s SATISFIABLE
c process-time: 0.05 seconds
-----
c input_v4/binary/cnf_ALO_v4/17x17_168.cnf
pc 9536
cnfc 82710
s SATISFIABLE
c process-time: 0.04 seconds
-----
c input_v4/binary/cnf_ALO_v4/17x17_175.cnf
pc 3966
cnfc 30415
s SATISFIABLE
c process-time: 35s 35.06 seconds
-----
c input_v4/binary/cnf_ALO_v4/17x17_176.cnf
pc 3685
cnfc 27583
s SATISFIABLE
c process-time: 0.45 seconds
-----
c input_v4/binary/cnf_ALO_v4/17x17_177.cnf
pc 7583
cnfc 66505
s SATISFIABLE
c process-time: 1s 0.68 seconds
-----
c input_v4/binary/cnf_ALO_v4/17x17_178.cnf
pc 8420
cnfc 74222
s SATISFIABLE
c process-time: 1s 1.11 seconds
-----
c input_v4/binary/cnf_ALO_v4/17x17_187.cnf
pc 4247
cnfc 33146
s SATISFIABLE
c process-time: 1s 0.75 seconds
-----
c input_v4/binary/cnf_ALO_v4/17x17_188.cnf
pc 4528
cnfc 35803
s SATISFIABLE
c process-time: 0.09 seconds
-----
c input_v4/binary/cnf_ALO_v4/17x17_197.cnf
pc 4528
cnfc 35848
s SATISFIABLE
c process-time: 1s 1.02 seconds
-----
c input_v4/binary/cnf_ALO_v4/17x17_198.cnf
pc 3966
cnfc 30249
s SATISFIABLE
c process-time: 3s 2.83 seconds
-----
c input_v4/binary/cnf_ALO_v4/17x17_230.cnf
pc 2848
cnfc 19860
s SATISFIABLE
c process-time: 5s 4.90 seconds
-----
c input_v4/binary/cnf_ALO_v4/17x17_240.cnf
pc 3966
cnfc 30341
s SATISFIABLE
c process-time: 1s 0.73 seconds
-----
c input_v4/binary/cnf_ALO_v4/17x17_250.cnf
pc 10875
cnfc 97886
s SATISFIABLE
c process-time: 0.03 seconds
-----
c input_v4/binary/cnf_ALO_v4/17x17_260.cnf
pc 10875
cnfc 98918
s SATISFIABLE
c process-time: 0.06 seconds
-----
c input_v4/binary/cnf_ALO_v4/17x17_270.cnf
pc 9536
cnfc 82936
s SATISFIABLE
c process-time: 0.31 seconds
-----
c input_v4/binary/cnf_ALO_v4/17x17_429.cnf
pc 6746
cnfc 58584
s SATISFIABLE
c process-time: 0.01 seconds
-----
c input_v4/binary/cnf_ALO_v4/17x17_439.cnf
pc 4528
cnfc 35893
s SATISFIABLE
c process-time: 1s 1.36 seconds
-----
c input_v4/binary/cnf_ALO_v4/17x17_449.cnf
pc 6188
cnfc 53326
s SATISFIABLE
c process-time: 0.20 seconds
-----
c input_v4/binary/cnf_ALO_v4/20x20_430.cnf
pc 12140
cnfc 112382
s SATISFIABLE
c process-time: 1s 0.84 seconds
-----
c input_v4/binary/cnf_ALO_v4/20x20_440.cnf
pc 6696
cnfc 55182
s SATISFIABLE
c process-time: 3s 3.32 seconds
-----
c input_v4/binary/cnf_ALO_v4/20x20_450.cnf
pc 7872
cnfc 66768
s SATISFIABLE
c process-time: 7s 7.21 seconds
-----
c input_v4/binary/cnf_ALO_v4/20x36_106.cnf
pc 30516
cnfc 323192
s SATISFIABLE
c process-time: 21s 21.29 seconds
-----
c input_v4/binary/cnf_ALO_v4/20x36_114.cnf
pc 30516
cnfc 323555
s SATISFIABLE
c process-time: 2s 2.34 seconds
-----
c input_v4/binary/cnf_ALO_v4/20x36_118.cnf
pc 25610
cnfc 255213
s SATISFIABLE
c process-time: 45s 45.35 seconds
-----
c input_v4/binary/cnf_ALO_v4/20x36_130.cnf
pc 25610
cnfc 255274
s SATISFIABLE
c process-time: 13s 12.95 seconds
-----
c input_v4/binary/cnf_ALO_v4/20x36_140.cnf
pc 25610
cnfc 255334
s SATISFIABLE
c process-time: 1m 24s 83.57 seconds
-----
c input_v4/binary/cnf_ALO_v4/20x36_149.cnf
pc 23480
cnfc 232109
s SATISFIABLE
c process-time: 2m 119.51 seconds
-----
c input_v4/binary/cnf_ALO_v4/20x36_150.cnf
pc 19220
cnfc 185693
c process-time: 15m 899.86 seconds
UNKNOWN
-----
c input_v4/binary/cnf_ALO_v4/20x36_159.cnf
pc 25610
cnfc 255455
s SATISFIABLE
c process-time: 2m 54s 174.03 seconds
-----
c input_v4/binary/cnf_ALO_v4/20x36_160.cnf
pc 19220
cnfc 185693
c process-time: 15m 899.71 seconds
UNKNOWN
-----
c input_v4/binary/cnf_ALO_v4/20x36_170.cnf
pc 27684
cnfc 291889
s SATISFIABLE
c process-time: 1m 56s 116.13 seconds
-----
c input_v4/binary/cnf_ALO_v4/20x36_180.cnf
pc 19220
cnfc 185778
s SATISFIABLE
c process-time: 4m 10s 249.90 seconds
-----
c input_v4/binary/cnf_ALO_v4/20x36_210.cnf
pc 27684
cnfc 291889
s SATISFIABLE
c process-time: 1m 56s 115.95 seconds
-----
c input_v4/binary/cnf_ALO_v4/20x36_220.cnf
pc 30516
cnfc 322540
s SATISFIABLE
c process-time: 7s 6.58 seconds
-----
c input_v4/binary/cnf_ALO_v4/25x25_60.cnf
pc 18500
cnfc 179347
c process-time: 15m 899.82 seconds
UNKNOWN
-----
c input_v4/binary/cnf_ALO_v4/25x25_66.cnf
pc 21575
cnfc 211726
s SATISFIABLE
c process-time: 15s 15.35 seconds
-----
c input_v4/binary/cnf_ALO_v4/25x25_72.cnf
pc 27657
cnfc 288121
s SATISFIABLE
c process-time: 2s 2.44 seconds
-----
c input_v4/binary/cnf_ALO_v4/25x25_78.cnf
pc 22190
cnfc 217958
s SATISFIABLE
c process-time: 31s 30.70 seconds
-----
c input_v4/binary/cnf_ALO_v4/25x42_110.cnf
pc 70656
cnfc 781248
s SATISFIABLE
c process-time: 9s 9.36 seconds
-----
c input_v4/binary/cnf_ALO_v4/35x48_190.cnf
pc 76800
cnfc 875748
c process-time: 15m 899.85 seconds
UNKNOWN
-----
c input_v4/binary/cnf_ALO_v4/6x6_120.cnf
pc 200
cnfc 942
s SATISFIABLE
c process-time: 0.00 seconds
-----
c input_v4/binary/cnf_ALO_v4/6x6_121.cnf
pc 288
cnfc 1382
s SATISFIABLE
c process-time: 0.00 seconds
-----
c input_v4/binary/cnf_ALO_v4/6x6_122.cnf
pc 258
cnfc 1212
s SATISFIABLE
c process-time: 0.00 seconds
-----
c input_v4/binary/cnf_ALO_v4/6x6_123.cnf
pc 258
cnfc 1279
s SATISFIABLE
c process-time: 0.00 seconds
-----
c input_v4/binary/cnf_ALO_v4/6x6_124.cnf
pc 258
cnfc 1203
s SATISFIABLE
c process-time: 0.00 seconds
-----
c input_v4/binary/cnf_ALO_v4/6x6_125.cnf
pc 258
cnfc 1229
s SATISFIABLE
c process-time: 0.00 seconds
-----
c input_v4/binary/cnf_ALO_v4/6x6_130.cnf
pc 200
cnfc 942
s SATISFIABLE
c process-time: 0.00 seconds
-----
c input_v4/binary/cnf_ALO_v4/6x6_131.cnf
pc 288
cnfc 1372
s SATISFIABLE
c process-time: 0.00 seconds
-----
c input_v4/binary/cnf_ALO_v4/6x6_132.cnf
pc 200
cnfc 929
s SATISFIABLE
c process-time: 0.00 seconds
-----
c input_v4/binary/cnf_ALO_v4/6x6_133.cnf
pc 288
cnfc 1341
s SATISFIABLE
c process-time: 0.00 seconds
-----
c input_v4/binary/cnf_ALO_v4/6x6_134.cnf
pc 288
cnfc 1362
s SATISFIABLE
c process-time: 0.00 seconds
-----
c input_v4/binary/cnf_ALO_v4/6x6_135.cnf
pc 200
cnfc 929
s SATISFIABLE
c process-time: 0.00 seconds
-----
c input_v4/binary/cnf_ALO_v4/6x6_136.cnf
pc 200
cnfc 967
s SATISFIABLE
c process-time: 0.00 seconds
-----
c input_v4/binary/cnf_ALO_v4/6x6_137.cnf
pc 258
cnfc 1270
s SATISFIABLE
c process-time: 0.00 seconds
-----
c input_v4/binary/cnf_ALO_v4/6x6_138.cnf
pc 258
cnfc 1254
s SATISFIABLE
c process-time: 0.00 seconds
-----
c input_v4/binary/cnf_ALO_v4/6x6_139.cnf
pc 258
cnfc 1212
s SATISFIABLE
c process-time: 0.00 seconds
-----
c input_v4/binary/cnf_ALO_v4/6x6_140.cnf
pc 318
cnfc 1458
s SATISFIABLE
c process-time: 0.00 seconds
-----
c input_v4/binary/cnf_ALO_v4/6x6_141.cnf
pc 200
cnfc 929
s SATISFIABLE
c process-time: 0.00 seconds
-----
c input_v4/binary/cnf_ALO_v4/6x6_142.cnf
pc 258
cnfc 1220
s SATISFIABLE
c process-time: 0.00 seconds
-----
c input_v4/binary/cnf_ALO_v4/6x6_143.cnf
pc 288
cnfc 1392
s SATISFIABLE
c process-time: 0.00 seconds
-----
c input_v4/binary/cnf_ALO_v4/6x6_144.cnf
pc 288
cnfc 1404
s SATISFIABLE
c process-time: 0.00 seconds
-----
c input_v4/binary/cnf_ALO_v4/6x6_145.cnf
pc 258
cnfc 1229
s SATISFIABLE
c process-time: 0.00 seconds
-----
c input_v4/binary/cnf_ALO_v4/7x7_120.cnf
pc 405
cnfc 2032
s SATISFIABLE
c process-time: 0.00 seconds
-----
c input_v4/binary/cnf_ALO_v4/7x7_121.cnf
pc 448
cnfc 2397
s SATISFIABLE
c process-time: 0.00 seconds
-----
c input_v4/binary/cnf_ALO_v4/7x7_122.cnf
pc 448
cnfc 2434
s SATISFIABLE
c process-time: 0.00 seconds
-----
c input_v4/binary/cnf_ALO_v4/7x7_123.cnf
pc 362
cnfc 1801
s SATISFIABLE
c process-time: 0.00 seconds
-----
c input_v4/binary/cnf_ALO_v4/7x7_124.cnf
pc 405
cnfc 2105
s SATISFIABLE
c process-time: 0.00 seconds
-----
c input_v4/binary/cnf_ALO_v4/7x7_130.cnf
pc 278
cnfc 1436
s SATISFIABLE
c process-time: 0.00 seconds
-----
c input_v4/binary/cnf_ALO_v4/7x7_131.cnf
pc 405
cnfc 2157
s SATISFIABLE
c process-time: 0.00 seconds
-----
c input_v4/binary/cnf_ALO_v4/7x7_132.cnf
pc 491
cnfc 2590
s SATISFIABLE
c process-time: 0.00 seconds
-----
c input_v4/binary/cnf_ALO_v4/7x7_133.cnf
pc 405
cnfc 2188
s SATISFIABLE
c process-time: 0.00 seconds
-----
c input_v4/binary/cnf_ALO_v4/7x7_134.cnf
pc 362
cnfc 1843
s SATISFIABLE
c process-time: 0.00 seconds
-----
c input_v4/binary/cnf_ALO_v4/7x7_135.cnf
pc 448
cnfc 2471
s SATISFIABLE
c process-time: 0.00 seconds
-----
c input_v4/binary/cnf_ALO_v4/7x7_136.cnf
pc 362
cnfc 1835
s SATISFIABLE
c process-time: 0.00 seconds
-----
c input_v4/binary/cnf_ALO_v4/7x7_137.cnf
pc 362
cnfc 1860
s SATISFIABLE
c process-time: 0.00 seconds
-----
c input_v4/binary/cnf_ALO_v4/7x7_138.cnf
pc 405
cnfc 2126
s SATISFIABLE
c process-time: 0.00 seconds
-----
c input_v4/binary/cnf_ALO_v4/7x7_139.cnf
pc 405
cnfc 2157
s SATISFIABLE
c process-time: 0.00 seconds
-----
c input_v4/binary/cnf_ALO_v4/7x7_140.cnf
pc 405
cnfc 2095
s SATISFIABLE
c process-time: 0.00 seconds
-----
c input_v4/binary/cnf_ALO_v4/7x7_141.cnf
pc 405
cnfc 2105
s SATISFIABLE
c process-time: 0.00 seconds
-----
c input_v4/binary/cnf_ALO_v4/7x7_142.cnf
pc 405
cnfc 2126
s SATISFIABLE
c process-time: 0.00 seconds
-----
c input_v4/binary/cnf_ALO_v4/7x7_143.cnf
pc 448
cnfc 2472
s SATISFIABLE
c process-time: 0.00 seconds
-----
c input_v4/binary/cnf_ALO_v4/7x7_144.cnf
pc 405
cnfc 2126
s SATISFIABLE
c process-time: 0.00 seconds
-----
c input_v4/binary/cnf_ALO_v4/7x7_145.cnf
pc 405
cnfc 2094
s SATISFIABLE
c process-time: 0.00 seconds
-----
c input_v4/binary/cnf_ALO_v4/8x8_120.cnf
pc 656
cnfc 3696
s SATISFIABLE
c process-time: 0.00 seconds
-----
c input_v4/binary/cnf_ALO_v4/8x8_121.cnf
pc 656
cnfc 3697
s SATISFIABLE
c process-time: 0.00 seconds
-----
c input_v4/binary/cnf_ALO_v4/8x8_122.cnf
pc 656
cnfc 3812
s SATISFIABLE
c process-time: 0.00 seconds
-----
c input_v4/binary/cnf_ALO_v4/8x8_123.cnf
pc 656
cnfc 3653
s SATISFIABLE
c process-time: 0.00 seconds
-----
c input_v4/binary/cnf_ALO_v4/8x8_124.cnf
pc 540
cnfc 3108
s SATISFIABLE
c process-time: 0.00 seconds
-----
c input_v4/binary/cnf_ALO_v4/8x8_130.cnf
pc 540
cnfc 2993
s SATISFIABLE
c process-time: 0.00 seconds
-----
c input_v4/binary/cnf_ALO_v4/8x8_131.cnf
pc 656
cnfc 3696
s SATISFIABLE
c process-time: 0.00 seconds
-----
c input_v4/binary/cnf_ALO_v4/8x8_132.cnf
pc 598
cnfc 3318
s SATISFIABLE
c process-time: 0.00 seconds
-----
c input_v4/binary/cnf_ALO_v4/8x8_133.cnf
pc 540
cnfc 3035
s SATISFIABLE
c process-time: 0.00 seconds
-----
c input_v4/binary/cnf_ALO_v4/8x8_134.cnf
pc 656
cnfc 3624
s SATISFIABLE
c process-time: 0.00 seconds
-----
c input_v4/binary/cnf_ALO_v4/8x8_135.cnf
pc 540
cnfc 2983
s SATISFIABLE
c process-time: 0.00 seconds
-----
c input_v4/binary/cnf_ALO_v4/8x8_136.cnf
pc 598
cnfc 3343
s SATISFIABLE
c process-time: 0.00 seconds
-----
c input_v4/binary/cnf_ALO_v4/8x8_137.cnf
pc 656
cnfc 3696
s SATISFIABLE
c process-time: 0.00 seconds
-----
c input_v4/binary/cnf_ALO_v4/8x8_138.cnf
pc 482
cnfc 2620
s SATISFIABLE
c process-time: 0.00 seconds
-----
c input_v4/binary/cnf_ALO_v4/8x8_139.cnf
pc 656
cnfc 3653
s SATISFIABLE
c process-time: 0.00 seconds
-----
c input_v4/binary/cnf_ALO_v4/8x8_140.cnf
pc 598
cnfc 3418
s SATISFIABLE
c process-time: 0.00 seconds
-----
c input_v4/binary/cnf_ALO_v4/8x8_141.cnf
pc 656
cnfc 3797
s SATISFIABLE
c process-time: 0.00 seconds
-----
c input_v4/binary/cnf_ALO_v4/8x8_142.cnf
pc 598
cnfc 3380
s SATISFIABLE
c process-time: 0.00 seconds
-----
c input_v4/binary/cnf_ALO_v4/8x8_143.cnf
pc 760
cnfc 4518
s SATISFIABLE
c process-time: 0.00 seconds
-----
c input_v4/binary/cnf_ALO_v4/8x8_144.cnf
pc 598
cnfc 3430
s SATISFIABLE
c process-time: 0.00 seconds
-----
c input_v4/binary/cnf_ALO_v4/8x8_145.cnf
pc 656
cnfc 3783
s SATISFIABLE
c process-time: 0.00 seconds
-----
c input_v4/binary/cnf_ALO_v4/9x9_120.cnf
pc 768
cnfc 4582
s SATISFIABLE
c process-time: 0.00 seconds
-----
c input_v4/binary/cnf_ALO_v4/9x9_121.cnf
pc 981
cnfc 6128
s SATISFIABLE
c process-time: 0.00 seconds
-----
c input_v4/binary/cnf_ALO_v4/9x9_122.cnf
pc 981
cnfc 6079
s SATISFIABLE
c process-time: 0.00 seconds
-----
c input_v4/binary/cnf_ALO_v4/9x9_123.cnf
pc 843
cnfc 5009
s SATISFIABLE
c process-time: 0.00 seconds
-----
c input_v4/binary/cnf_ALO_v4/9x9_124.cnf
pc 1054
cnfc 6675
s SATISFIABLE
c process-time: 0.00 seconds
-----
c input_v4/binary/cnf_ALO_v4/9x9_130.cnf
pc 981
cnfc 6112
s SATISFIABLE
c process-time: 0.00 seconds
-----
c input_v4/binary/cnf_ALO_v4/9x9_131.cnf
pc 1054
cnfc 6564
s SATISFIABLE
c process-time: 0.00 seconds
-----
c input_v4/binary/cnf_ALO_v4/9x9_132.cnf
pc 1054
cnfc 6619
s SATISFIABLE
c process-time: 0.00 seconds
-----
c input_v4/binary/cnf_ALO_v4/9x9_133.cnf
pc 981
cnfc 6178
s SATISFIABLE
c process-time: 0.00 seconds
-----
c input_v4/binary/cnf_ALO_v4/9x9_134.cnf
pc 768
cnfc 4657
s SATISFIABLE
c process-time: 0.00 seconds
-----
c input_v4/binary/cnf_ALO_v4/9x9_135.cnf
pc 843
cnfc 5110
s SATISFIABLE
c process-time: 0.00 seconds
-----
c input_v4/binary/cnf_ALO_v4/9x9_136.cnf
pc 843
cnfc 5125
s SATISFIABLE
c process-time: 0.00 seconds
-----
c input_v4/binary/cnf_ALO_v4/9x9_137.cnf
pc 768
cnfc 4557
s SATISFIABLE
c process-time: 0.00 seconds
-----
c input_v4/binary/cnf_ALO_v4/9x9_138.cnf
pc 843
cnfc 5139
s SATISFIABLE
c process-time: 0.00 seconds
-----
c input_v4/binary/cnf_ALO_v4/9x9_139.cnf
pc 981
cnfc 6013
s SATISFIABLE
c process-time: 0.00 seconds
-----
c input_v4/binary/cnf_ALO_v4/9x9_140.cnf
pc 981
cnfc 6260
s SATISFIABLE
c process-time: 0.00 seconds
-----
c input_v4/binary/cnf_ALO_v4/9x9_141.cnf
pc 768
cnfc 4569
s SATISFIABLE
c process-time: 0.00 seconds
-----
c input_v4/binary/cnf_ALO_v4/9x9_142.cnf
pc 1054
cnfc 6638
s SATISFIABLE
c process-time: 0.00 seconds
-----
c input_v4/binary/cnf_ALO_v4/9x9_143.cnf
pc 843
cnfc 5154
s SATISFIABLE
c process-time: 0.00 seconds
-----
c input_v4/binary/cnf_ALO_v4/9x9_144.cnf
pc 981
cnfc 6128
s SATISFIABLE
c process-time: 0.00 seconds
-----
c input_v4/binary/cnf_ALO_v4/9x9_145.cnf
pc 843
cnfc 5067
s SATISFIABLE
c process-time: 0.00 seconds
-----
UNKNOWN
-----

